n = 18;
m = 5;
p = [2, 8, 3, 5, 0];
v = [0, 0.25, 0.5, 0.75, 1];
ce = [3, 1, 1, 1, 2];
c = [| 0, 2, 3, 6, 8 |
     | 2, 0, 2, 4, 6 |
     | 3, 2, 0, 2, 4 |
     | 6, 4, 2, 0, 2 |
     | 8, 6, 4, 2, 0 |];
ct = 20;
maxM = 14;
